m = 4;
n = 8;
L = [15, 12, 15, 15];
S = [3, 2, 6, 8, 5, 6, 6, 5];
D = [|0, 3, 3, 6, 5, 6, 6, 2, 5
     |3, 0, 4, 3, 4, 7, 7, 3, 6
     |3, 4, 0, 7, 6, 3, 5, 3, 4
     |6, 3, 7, 0, 3, 6, 6, 4, 1
     |5, 4, 6, 3, 0, 3, 3, 3, 1
     |6, 7, 3, 6, 3, 0, 2, 4, 1
     |6, 7, 5, 6, 3, 2, 0, 4, 1
     |2, 3, 3, 4, 3, 4, 4, 0, 1
     |2, 3, 3, 4, 3, 4, 4, 4, 0 |];
     